1651
26 23 2 58 4 68 27 33 1 30 19 10 20 38 61 35 21 66 42 74 46 59 47 99 7 22 34 16 72 88 5 41 11 96 69 45 56 44 92 84 87 79 63 40 25 98 12 67 6 32 82 93 97 78 70 86 36 64 43 18 8 81 77 48 91 13 9 51 95 80 57 37 71 28 29 90 55 24 17 14 60 31 62 83 89 39 94 50 76 65 54 53 15 52 75 49 3 85 73 
